c *********************************
c * Circuit generated by BenCGen
c *
c * Parity_491
c *
c * Ports with 1 gate(s): 1
c * Ports with 2 gate(s): 491
c * Total gates: 492
c *********************************
p cnf 983 1965
1 494 0
-1 -494 0
1 -493 0
494 -493 0
-1 -494 493 0
1 2 -495 0
-1 2 495 0
1 -2 495 0
-1 -2 -495 0
3 4 -496 0
-3 4 496 0
3 -4 496 0
-3 -4 -496 0
5 6 -497 0
-5 6 497 0
5 -6 497 0
-5 -6 -497 0
7 8 -498 0
-7 8 498 0
7 -8 498 0
-7 -8 -498 0
9 10 -499 0
-9 10 499 0
9 -10 499 0
-9 -10 -499 0
11 12 -500 0
-11 12 500 0
11 -12 500 0
-11 -12 -500 0
13 14 -501 0
-13 14 501 0
13 -14 501 0
-13 -14 -501 0
15 16 -502 0
-15 16 502 0
15 -16 502 0
-15 -16 -502 0
17 18 -503 0
-17 18 503 0
17 -18 503 0
-17 -18 -503 0
19 20 -504 0
-19 20 504 0
19 -20 504 0
-19 -20 -504 0
21 22 -505 0
-21 22 505 0
21 -22 505 0
-21 -22 -505 0
23 24 -506 0
-23 24 506 0
23 -24 506 0
-23 -24 -506 0
25 26 -507 0
-25 26 507 0
25 -26 507 0
-25 -26 -507 0
27 28 -508 0
-27 28 508 0
27 -28 508 0
-27 -28 -508 0
29 30 -509 0
-29 30 509 0
29 -30 509 0
-29 -30 -509 0
31 32 -510 0
-31 32 510 0
31 -32 510 0
-31 -32 -510 0
33 34 -511 0
-33 34 511 0
33 -34 511 0
-33 -34 -511 0
35 36 -512 0
-35 36 512 0
35 -36 512 0
-35 -36 -512 0
37 38 -513 0
-37 38 513 0
37 -38 513 0
-37 -38 -513 0
39 40 -514 0
-39 40 514 0
39 -40 514 0
-39 -40 -514 0
41 42 -515 0
-41 42 515 0
41 -42 515 0
-41 -42 -515 0
43 44 -516 0
-43 44 516 0
43 -44 516 0
-43 -44 -516 0
45 46 -517 0
-45 46 517 0
45 -46 517 0
-45 -46 -517 0
47 48 -518 0
-47 48 518 0
47 -48 518 0
-47 -48 -518 0
49 50 -519 0
-49 50 519 0
49 -50 519 0
-49 -50 -519 0
51 52 -520 0
-51 52 520 0
51 -52 520 0
-51 -52 -520 0
53 54 -521 0
-53 54 521 0
53 -54 521 0
-53 -54 -521 0
55 56 -522 0
-55 56 522 0
55 -56 522 0
-55 -56 -522 0
57 58 -523 0
-57 58 523 0
57 -58 523 0
-57 -58 -523 0
59 60 -524 0
-59 60 524 0
59 -60 524 0
-59 -60 -524 0
61 62 -525 0
-61 62 525 0
61 -62 525 0
-61 -62 -525 0
63 64 -526 0
-63 64 526 0
63 -64 526 0
-63 -64 -526 0
65 66 -527 0
-65 66 527 0
65 -66 527 0
-65 -66 -527 0
67 68 -528 0
-67 68 528 0
67 -68 528 0
-67 -68 -528 0
69 70 -529 0
-69 70 529 0
69 -70 529 0
-69 -70 -529 0
71 72 -530 0
-71 72 530 0
71 -72 530 0
-71 -72 -530 0
73 74 -531 0
-73 74 531 0
73 -74 531 0
-73 -74 -531 0
75 76 -532 0
-75 76 532 0
75 -76 532 0
-75 -76 -532 0
77 78 -533 0
-77 78 533 0
77 -78 533 0
-77 -78 -533 0
79 80 -534 0
-79 80 534 0
79 -80 534 0
-79 -80 -534 0
81 82 -535 0
-81 82 535 0
81 -82 535 0
-81 -82 -535 0
83 84 -536 0
-83 84 536 0
83 -84 536 0
-83 -84 -536 0
85 86 -537 0
-85 86 537 0
85 -86 537 0
-85 -86 -537 0
87 88 -538 0
-87 88 538 0
87 -88 538 0
-87 -88 -538 0
89 90 -539 0
-89 90 539 0
89 -90 539 0
-89 -90 -539 0
91 92 -540 0
-91 92 540 0
91 -92 540 0
-91 -92 -540 0
93 94 -541 0
-93 94 541 0
93 -94 541 0
-93 -94 -541 0
95 96 -542 0
-95 96 542 0
95 -96 542 0
-95 -96 -542 0
97 98 -543 0
-97 98 543 0
97 -98 543 0
-97 -98 -543 0
99 100 -544 0
-99 100 544 0
99 -100 544 0
-99 -100 -544 0
101 102 -545 0
-101 102 545 0
101 -102 545 0
-101 -102 -545 0
103 104 -546 0
-103 104 546 0
103 -104 546 0
-103 -104 -546 0
105 106 -547 0
-105 106 547 0
105 -106 547 0
-105 -106 -547 0
107 108 -548 0
-107 108 548 0
107 -108 548 0
-107 -108 -548 0
109 110 -549 0
-109 110 549 0
109 -110 549 0
-109 -110 -549 0
111 112 -550 0
-111 112 550 0
111 -112 550 0
-111 -112 -550 0
113 114 -551 0
-113 114 551 0
113 -114 551 0
-113 -114 -551 0
115 116 -552 0
-115 116 552 0
115 -116 552 0
-115 -116 -552 0
117 118 -553 0
-117 118 553 0
117 -118 553 0
-117 -118 -553 0
119 120 -554 0
-119 120 554 0
119 -120 554 0
-119 -120 -554 0
121 122 -555 0
-121 122 555 0
121 -122 555 0
-121 -122 -555 0
123 124 -556 0
-123 124 556 0
123 -124 556 0
-123 -124 -556 0
125 126 -557 0
-125 126 557 0
125 -126 557 0
-125 -126 -557 0
127 128 -558 0
-127 128 558 0
127 -128 558 0
-127 -128 -558 0
129 130 -559 0
-129 130 559 0
129 -130 559 0
-129 -130 -559 0
131 132 -560 0
-131 132 560 0
131 -132 560 0
-131 -132 -560 0
133 134 -561 0
-133 134 561 0
133 -134 561 0
-133 -134 -561 0
135 136 -562 0
-135 136 562 0
135 -136 562 0
-135 -136 -562 0
137 138 -563 0
-137 138 563 0
137 -138 563 0
-137 -138 -563 0
139 140 -564 0
-139 140 564 0
139 -140 564 0
-139 -140 -564 0
141 142 -565 0
-141 142 565 0
141 -142 565 0
-141 -142 -565 0
143 144 -566 0
-143 144 566 0
143 -144 566 0
-143 -144 -566 0
145 146 -567 0
-145 146 567 0
145 -146 567 0
-145 -146 -567 0
147 148 -568 0
-147 148 568 0
147 -148 568 0
-147 -148 -568 0
149 150 -569 0
-149 150 569 0
149 -150 569 0
-149 -150 -569 0
151 152 -570 0
-151 152 570 0
151 -152 570 0
-151 -152 -570 0
153 154 -571 0
-153 154 571 0
153 -154 571 0
-153 -154 -571 0
155 156 -572 0
-155 156 572 0
155 -156 572 0
-155 -156 -572 0
157 158 -573 0
-157 158 573 0
157 -158 573 0
-157 -158 -573 0
159 160 -574 0
-159 160 574 0
159 -160 574 0
-159 -160 -574 0
161 162 -575 0
-161 162 575 0
161 -162 575 0
-161 -162 -575 0
163 164 -576 0
-163 164 576 0
163 -164 576 0
-163 -164 -576 0
165 166 -577 0
-165 166 577 0
165 -166 577 0
-165 -166 -577 0
167 168 -578 0
-167 168 578 0
167 -168 578 0
-167 -168 -578 0
169 170 -579 0
-169 170 579 0
169 -170 579 0
-169 -170 -579 0
171 172 -580 0
-171 172 580 0
171 -172 580 0
-171 -172 -580 0
173 174 -581 0
-173 174 581 0
173 -174 581 0
-173 -174 -581 0
175 176 -582 0
-175 176 582 0
175 -176 582 0
-175 -176 -582 0
177 178 -583 0
-177 178 583 0
177 -178 583 0
-177 -178 -583 0
179 180 -584 0
-179 180 584 0
179 -180 584 0
-179 -180 -584 0
181 182 -585 0
-181 182 585 0
181 -182 585 0
-181 -182 -585 0
183 184 -586 0
-183 184 586 0
183 -184 586 0
-183 -184 -586 0
185 186 -587 0
-185 186 587 0
185 -186 587 0
-185 -186 -587 0
187 188 -588 0
-187 188 588 0
187 -188 588 0
-187 -188 -588 0
189 190 -589 0
-189 190 589 0
189 -190 589 0
-189 -190 -589 0
191 192 -590 0
-191 192 590 0
191 -192 590 0
-191 -192 -590 0
193 194 -591 0
-193 194 591 0
193 -194 591 0
-193 -194 -591 0
195 196 -592 0
-195 196 592 0
195 -196 592 0
-195 -196 -592 0
197 198 -593 0
-197 198 593 0
197 -198 593 0
-197 -198 -593 0
199 200 -594 0
-199 200 594 0
199 -200 594 0
-199 -200 -594 0
201 202 -595 0
-201 202 595 0
201 -202 595 0
-201 -202 -595 0
203 204 -596 0
-203 204 596 0
203 -204 596 0
-203 -204 -596 0
205 206 -597 0
-205 206 597 0
205 -206 597 0
-205 -206 -597 0
207 208 -598 0
-207 208 598 0
207 -208 598 0
-207 -208 -598 0
209 210 -599 0
-209 210 599 0
209 -210 599 0
-209 -210 -599 0
211 212 -600 0
-211 212 600 0
211 -212 600 0
-211 -212 -600 0
213 214 -601 0
-213 214 601 0
213 -214 601 0
-213 -214 -601 0
215 216 -602 0
-215 216 602 0
215 -216 602 0
-215 -216 -602 0
217 218 -603 0
-217 218 603 0
217 -218 603 0
-217 -218 -603 0
219 220 -604 0
-219 220 604 0
219 -220 604 0
-219 -220 -604 0
221 222 -605 0
-221 222 605 0
221 -222 605 0
-221 -222 -605 0
223 224 -606 0
-223 224 606 0
223 -224 606 0
-223 -224 -606 0
225 226 -607 0
-225 226 607 0
225 -226 607 0
-225 -226 -607 0
227 228 -608 0
-227 228 608 0
227 -228 608 0
-227 -228 -608 0
229 230 -609 0
-229 230 609 0
229 -230 609 0
-229 -230 -609 0
231 232 -610 0
-231 232 610 0
231 -232 610 0
-231 -232 -610 0
233 234 -611 0
-233 234 611 0
233 -234 611 0
-233 -234 -611 0
235 236 -612 0
-235 236 612 0
235 -236 612 0
-235 -236 -612 0
237 238 -613 0
-237 238 613 0
237 -238 613 0
-237 -238 -613 0
239 240 -614 0
-239 240 614 0
239 -240 614 0
-239 -240 -614 0
241 242 -615 0
-241 242 615 0
241 -242 615 0
-241 -242 -615 0
243 244 -616 0
-243 244 616 0
243 -244 616 0
-243 -244 -616 0
245 246 -617 0
-245 246 617 0
245 -246 617 0
-245 -246 -617 0
247 248 -618 0
-247 248 618 0
247 -248 618 0
-247 -248 -618 0
249 250 -619 0
-249 250 619 0
249 -250 619 0
-249 -250 -619 0
251 252 -620 0
-251 252 620 0
251 -252 620 0
-251 -252 -620 0
253 254 -621 0
-253 254 621 0
253 -254 621 0
-253 -254 -621 0
255 256 -622 0
-255 256 622 0
255 -256 622 0
-255 -256 -622 0
257 258 -623 0
-257 258 623 0
257 -258 623 0
-257 -258 -623 0
259 260 -624 0
-259 260 624 0
259 -260 624 0
-259 -260 -624 0
261 262 -625 0
-261 262 625 0
261 -262 625 0
-261 -262 -625 0
263 264 -626 0
-263 264 626 0
263 -264 626 0
-263 -264 -626 0
265 266 -627 0
-265 266 627 0
265 -266 627 0
-265 -266 -627 0
267 268 -628 0
-267 268 628 0
267 -268 628 0
-267 -268 -628 0
269 270 -629 0
-269 270 629 0
269 -270 629 0
-269 -270 -629 0
271 272 -630 0
-271 272 630 0
271 -272 630 0
-271 -272 -630 0
273 274 -631 0
-273 274 631 0
273 -274 631 0
-273 -274 -631 0
275 276 -632 0
-275 276 632 0
275 -276 632 0
-275 -276 -632 0
277 278 -633 0
-277 278 633 0
277 -278 633 0
-277 -278 -633 0
279 280 -634 0
-279 280 634 0
279 -280 634 0
-279 -280 -634 0
281 282 -635 0
-281 282 635 0
281 -282 635 0
-281 -282 -635 0
283 284 -636 0
-283 284 636 0
283 -284 636 0
-283 -284 -636 0
285 286 -637 0
-285 286 637 0
285 -286 637 0
-285 -286 -637 0
287 288 -638 0
-287 288 638 0
287 -288 638 0
-287 -288 -638 0
289 290 -639 0
-289 290 639 0
289 -290 639 0
-289 -290 -639 0
291 292 -640 0
-291 292 640 0
291 -292 640 0
-291 -292 -640 0
293 294 -641 0
-293 294 641 0
293 -294 641 0
-293 -294 -641 0
295 296 -642 0
-295 296 642 0
295 -296 642 0
-295 -296 -642 0
297 298 -643 0
-297 298 643 0
297 -298 643 0
-297 -298 -643 0
299 300 -644 0
-299 300 644 0
299 -300 644 0
-299 -300 -644 0
301 302 -645 0
-301 302 645 0
301 -302 645 0
-301 -302 -645 0
303 304 -646 0
-303 304 646 0
303 -304 646 0
-303 -304 -646 0
305 306 -647 0
-305 306 647 0
305 -306 647 0
-305 -306 -647 0
307 308 -648 0
-307 308 648 0
307 -308 648 0
-307 -308 -648 0
309 310 -649 0
-309 310 649 0
309 -310 649 0
-309 -310 -649 0
311 312 -650 0
-311 312 650 0
311 -312 650 0
-311 -312 -650 0
313 314 -651 0
-313 314 651 0
313 -314 651 0
-313 -314 -651 0
315 316 -652 0
-315 316 652 0
315 -316 652 0
-315 -316 -652 0
317 318 -653 0
-317 318 653 0
317 -318 653 0
-317 -318 -653 0
319 320 -654 0
-319 320 654 0
319 -320 654 0
-319 -320 -654 0
321 322 -655 0
-321 322 655 0
321 -322 655 0
-321 -322 -655 0
323 324 -656 0
-323 324 656 0
323 -324 656 0
-323 -324 -656 0
325 326 -657 0
-325 326 657 0
325 -326 657 0
-325 -326 -657 0
327 328 -658 0
-327 328 658 0
327 -328 658 0
-327 -328 -658 0
329 330 -659 0
-329 330 659 0
329 -330 659 0
-329 -330 -659 0
331 332 -660 0
-331 332 660 0
331 -332 660 0
-331 -332 -660 0
333 334 -661 0
-333 334 661 0
333 -334 661 0
-333 -334 -661 0
335 336 -662 0
-335 336 662 0
335 -336 662 0
-335 -336 -662 0
337 338 -663 0
-337 338 663 0
337 -338 663 0
-337 -338 -663 0
339 340 -664 0
-339 340 664 0
339 -340 664 0
-339 -340 -664 0
341 342 -665 0
-341 342 665 0
341 -342 665 0
-341 -342 -665 0
343 344 -666 0
-343 344 666 0
343 -344 666 0
-343 -344 -666 0
345 346 -667 0
-345 346 667 0
345 -346 667 0
-345 -346 -667 0
347 348 -668 0
-347 348 668 0
347 -348 668 0
-347 -348 -668 0
349 350 -669 0
-349 350 669 0
349 -350 669 0
-349 -350 -669 0
351 352 -670 0
-351 352 670 0
351 -352 670 0
-351 -352 -670 0
353 354 -671 0
-353 354 671 0
353 -354 671 0
-353 -354 -671 0
355 356 -672 0
-355 356 672 0
355 -356 672 0
-355 -356 -672 0
357 358 -673 0
-357 358 673 0
357 -358 673 0
-357 -358 -673 0
359 360 -674 0
-359 360 674 0
359 -360 674 0
-359 -360 -674 0
361 362 -675 0
-361 362 675 0
361 -362 675 0
-361 -362 -675 0
363 364 -676 0
-363 364 676 0
363 -364 676 0
-363 -364 -676 0
365 366 -677 0
-365 366 677 0
365 -366 677 0
-365 -366 -677 0
367 368 -678 0
-367 368 678 0
367 -368 678 0
-367 -368 -678 0
369 370 -679 0
-369 370 679 0
369 -370 679 0
-369 -370 -679 0
371 372 -680 0
-371 372 680 0
371 -372 680 0
-371 -372 -680 0
373 374 -681 0
-373 374 681 0
373 -374 681 0
-373 -374 -681 0
375 376 -682 0
-375 376 682 0
375 -376 682 0
-375 -376 -682 0
377 378 -683 0
-377 378 683 0
377 -378 683 0
-377 -378 -683 0
379 380 -684 0
-379 380 684 0
379 -380 684 0
-379 -380 -684 0
381 382 -685 0
-381 382 685 0
381 -382 685 0
-381 -382 -685 0
383 384 -686 0
-383 384 686 0
383 -384 686 0
-383 -384 -686 0
385 386 -687 0
-385 386 687 0
385 -386 687 0
-385 -386 -687 0
387 388 -688 0
-387 388 688 0
387 -388 688 0
-387 -388 -688 0
389 390 -689 0
-389 390 689 0
389 -390 689 0
-389 -390 -689 0
391 392 -690 0
-391 392 690 0
391 -392 690 0
-391 -392 -690 0
393 394 -691 0
-393 394 691 0
393 -394 691 0
-393 -394 -691 0
395 396 -692 0
-395 396 692 0
395 -396 692 0
-395 -396 -692 0
397 398 -693 0
-397 398 693 0
397 -398 693 0
-397 -398 -693 0
399 400 -694 0
-399 400 694 0
399 -400 694 0
-399 -400 -694 0
401 402 -695 0
-401 402 695 0
401 -402 695 0
-401 -402 -695 0
403 404 -696 0
-403 404 696 0
403 -404 696 0
-403 -404 -696 0
405 406 -697 0
-405 406 697 0
405 -406 697 0
-405 -406 -697 0
407 408 -698 0
-407 408 698 0
407 -408 698 0
-407 -408 -698 0
409 410 -699 0
-409 410 699 0
409 -410 699 0
-409 -410 -699 0
411 412 -700 0
-411 412 700 0
411 -412 700 0
-411 -412 -700 0
413 414 -701 0
-413 414 701 0
413 -414 701 0
-413 -414 -701 0
415 416 -702 0
-415 416 702 0
415 -416 702 0
-415 -416 -702 0
417 418 -703 0
-417 418 703 0
417 -418 703 0
-417 -418 -703 0
419 420 -704 0
-419 420 704 0
419 -420 704 0
-419 -420 -704 0
421 422 -705 0
-421 422 705 0
421 -422 705 0
-421 -422 -705 0
423 424 -706 0
-423 424 706 0
423 -424 706 0
-423 -424 -706 0
425 426 -707 0
-425 426 707 0
425 -426 707 0
-425 -426 -707 0
427 428 -708 0
-427 428 708 0
427 -428 708 0
-427 -428 -708 0
429 430 -709 0
-429 430 709 0
429 -430 709 0
-429 -430 -709 0
431 432 -710 0
-431 432 710 0
431 -432 710 0
-431 -432 -710 0
433 434 -711 0
-433 434 711 0
433 -434 711 0
-433 -434 -711 0
435 436 -712 0
-435 436 712 0
435 -436 712 0
-435 -436 -712 0
437 438 -713 0
-437 438 713 0
437 -438 713 0
-437 -438 -713 0
439 440 -714 0
-439 440 714 0
439 -440 714 0
-439 -440 -714 0
441 442 -715 0
-441 442 715 0
441 -442 715 0
-441 -442 -715 0
443 444 -716 0
-443 444 716 0
443 -444 716 0
-443 -444 -716 0
445 446 -717 0
-445 446 717 0
445 -446 717 0
-445 -446 -717 0
447 448 -718 0
-447 448 718 0
447 -448 718 0
-447 -448 -718 0
449 450 -719 0
-449 450 719 0
449 -450 719 0
-449 -450 -719 0
451 452 -720 0
-451 452 720 0
451 -452 720 0
-451 -452 -720 0
453 454 -721 0
-453 454 721 0
453 -454 721 0
-453 -454 -721 0
455 456 -722 0
-455 456 722 0
455 -456 722 0
-455 -456 -722 0
457 458 -723 0
-457 458 723 0
457 -458 723 0
-457 -458 -723 0
459 460 -724 0
-459 460 724 0
459 -460 724 0
-459 -460 -724 0
461 462 -725 0
-461 462 725 0
461 -462 725 0
-461 -462 -725 0
463 464 -726 0
-463 464 726 0
463 -464 726 0
-463 -464 -726 0
465 466 -727 0
-465 466 727 0
465 -466 727 0
-465 -466 -727 0
467 468 -728 0
-467 468 728 0
467 -468 728 0
-467 -468 -728 0
469 470 -729 0
-469 470 729 0
469 -470 729 0
-469 -470 -729 0
471 472 -730 0
-471 472 730 0
471 -472 730 0
-471 -472 -730 0
473 474 -731 0
-473 474 731 0
473 -474 731 0
-473 -474 -731 0
475 476 -732 0
-475 476 732 0
475 -476 732 0
-475 -476 -732 0
477 478 -733 0
-477 478 733 0
477 -478 733 0
-477 -478 -733 0
479 480 -734 0
-479 480 734 0
479 -480 734 0
-479 -480 -734 0
481 482 -735 0
-481 482 735 0
481 -482 735 0
-481 -482 -735 0
483 484 -736 0
-483 484 736 0
483 -484 736 0
-483 -484 -736 0
485 486 -737 0
-485 486 737 0
485 -486 737 0
-485 -486 -737 0
487 488 -738 0
-487 488 738 0
487 -488 738 0
-487 -488 -738 0
489 490 -739 0
-489 490 739 0
489 -490 739 0
-489 -490 -739 0
495 496 -740 0
-495 496 740 0
495 -496 740 0
-495 -496 -740 0
497 498 -741 0
-497 498 741 0
497 -498 741 0
-497 -498 -741 0
499 500 -742 0
-499 500 742 0
499 -500 742 0
-499 -500 -742 0
501 502 -743 0
-501 502 743 0
501 -502 743 0
-501 -502 -743 0
503 504 -744 0
-503 504 744 0
503 -504 744 0
-503 -504 -744 0
505 506 -745 0
-505 506 745 0
505 -506 745 0
-505 -506 -745 0
507 508 -746 0
-507 508 746 0
507 -508 746 0
-507 -508 -746 0
509 510 -747 0
-509 510 747 0
509 -510 747 0
-509 -510 -747 0
511 512 -748 0
-511 512 748 0
511 -512 748 0
-511 -512 -748 0
513 514 -749 0
-513 514 749 0
513 -514 749 0
-513 -514 -749 0
515 516 -750 0
-515 516 750 0
515 -516 750 0
-515 -516 -750 0
517 518 -751 0
-517 518 751 0
517 -518 751 0
-517 -518 -751 0
519 520 -752 0
-519 520 752 0
519 -520 752 0
-519 -520 -752 0
521 522 -753 0
-521 522 753 0
521 -522 753 0
-521 -522 -753 0
523 524 -754 0
-523 524 754 0
523 -524 754 0
-523 -524 -754 0
525 526 -755 0
-525 526 755 0
525 -526 755 0
-525 -526 -755 0
527 528 -756 0
-527 528 756 0
527 -528 756 0
-527 -528 -756 0
529 530 -757 0
-529 530 757 0
529 -530 757 0
-529 -530 -757 0
531 532 -758 0
-531 532 758 0
531 -532 758 0
-531 -532 -758 0
533 534 -759 0
-533 534 759 0
533 -534 759 0
-533 -534 -759 0
535 536 -760 0
-535 536 760 0
535 -536 760 0
-535 -536 -760 0
537 538 -761 0
-537 538 761 0
537 -538 761 0
-537 -538 -761 0
539 540 -762 0
-539 540 762 0
539 -540 762 0
-539 -540 -762 0
541 542 -763 0
-541 542 763 0
541 -542 763 0
-541 -542 -763 0
543 544 -764 0
-543 544 764 0
543 -544 764 0
-543 -544 -764 0
545 546 -765 0
-545 546 765 0
545 -546 765 0
-545 -546 -765 0
547 548 -766 0
-547 548 766 0
547 -548 766 0
-547 -548 -766 0
549 550 -767 0
-549 550 767 0
549 -550 767 0
-549 -550 -767 0
551 552 -768 0
-551 552 768 0
551 -552 768 0
-551 -552 -768 0
553 554 -769 0
-553 554 769 0
553 -554 769 0
-553 -554 -769 0
555 556 -770 0
-555 556 770 0
555 -556 770 0
-555 -556 -770 0
557 558 -771 0
-557 558 771 0
557 -558 771 0
-557 -558 -771 0
559 560 -772 0
-559 560 772 0
559 -560 772 0
-559 -560 -772 0
561 562 -773 0
-561 562 773 0
561 -562 773 0
-561 -562 -773 0
563 564 -774 0
-563 564 774 0
563 -564 774 0
-563 -564 -774 0
565 566 -775 0
-565 566 775 0
565 -566 775 0
-565 -566 -775 0
567 568 -776 0
-567 568 776 0
567 -568 776 0
-567 -568 -776 0
569 570 -777 0
-569 570 777 0
569 -570 777 0
-569 -570 -777 0
571 572 -778 0
-571 572 778 0
571 -572 778 0
-571 -572 -778 0
573 574 -779 0
-573 574 779 0
573 -574 779 0
-573 -574 -779 0
575 576 -780 0
-575 576 780 0
575 -576 780 0
-575 -576 -780 0
577 578 -781 0
-577 578 781 0
577 -578 781 0
-577 -578 -781 0
579 580 -782 0
-579 580 782 0
579 -580 782 0
-579 -580 -782 0
581 582 -783 0
-581 582 783 0
581 -582 783 0
-581 -582 -783 0
583 584 -784 0
-583 584 784 0
583 -584 784 0
-583 -584 -784 0
585 586 -785 0
-585 586 785 0
585 -586 785 0
-585 -586 -785 0
587 588 -786 0
-587 588 786 0
587 -588 786 0
-587 -588 -786 0
589 590 -787 0
-589 590 787 0
589 -590 787 0
-589 -590 -787 0
591 592 -788 0
-591 592 788 0
591 -592 788 0
-591 -592 -788 0
593 594 -789 0
-593 594 789 0
593 -594 789 0
-593 -594 -789 0
595 596 -790 0
-595 596 790 0
595 -596 790 0
-595 -596 -790 0
597 598 -791 0
-597 598 791 0
597 -598 791 0
-597 -598 -791 0
599 600 -792 0
-599 600 792 0
599 -600 792 0
-599 -600 -792 0
601 602 -793 0
-601 602 793 0
601 -602 793 0
-601 -602 -793 0
603 604 -794 0
-603 604 794 0
603 -604 794 0
-603 -604 -794 0
605 606 -795 0
-605 606 795 0
605 -606 795 0
-605 -606 -795 0
607 608 -796 0
-607 608 796 0
607 -608 796 0
-607 -608 -796 0
609 610 -797 0
-609 610 797 0
609 -610 797 0
-609 -610 -797 0
611 612 -798 0
-611 612 798 0
611 -612 798 0
-611 -612 -798 0
613 614 -799 0
-613 614 799 0
613 -614 799 0
-613 -614 -799 0
615 616 -800 0
-615 616 800 0
615 -616 800 0
-615 -616 -800 0
617 618 -801 0
-617 618 801 0
617 -618 801 0
-617 -618 -801 0
619 620 -802 0
-619 620 802 0
619 -620 802 0
-619 -620 -802 0
621 622 -803 0
-621 622 803 0
621 -622 803 0
-621 -622 -803 0
623 624 -804 0
-623 624 804 0
623 -624 804 0
-623 -624 -804 0
625 626 -805 0
-625 626 805 0
625 -626 805 0
-625 -626 -805 0
627 628 -806 0
-627 628 806 0
627 -628 806 0
-627 -628 -806 0
629 630 -807 0
-629 630 807 0
629 -630 807 0
-629 -630 -807 0
631 632 -808 0
-631 632 808 0
631 -632 808 0
-631 -632 -808 0
633 634 -809 0
-633 634 809 0
633 -634 809 0
-633 -634 -809 0
635 636 -810 0
-635 636 810 0
635 -636 810 0
-635 -636 -810 0
637 638 -811 0
-637 638 811 0
637 -638 811 0
-637 -638 -811 0
639 640 -812 0
-639 640 812 0
639 -640 812 0
-639 -640 -812 0
641 642 -813 0
-641 642 813 0
641 -642 813 0
-641 -642 -813 0
643 644 -814 0
-643 644 814 0
643 -644 814 0
-643 -644 -814 0
645 646 -815 0
-645 646 815 0
645 -646 815 0
-645 -646 -815 0
647 648 -816 0
-647 648 816 0
647 -648 816 0
-647 -648 -816 0
649 650 -817 0
-649 650 817 0
649 -650 817 0
-649 -650 -817 0
651 652 -818 0
-651 652 818 0
651 -652 818 0
-651 -652 -818 0
653 654 -819 0
-653 654 819 0
653 -654 819 0
-653 -654 -819 0
655 656 -820 0
-655 656 820 0
655 -656 820 0
-655 -656 -820 0
657 658 -821 0
-657 658 821 0
657 -658 821 0
-657 -658 -821 0
659 660 -822 0
-659 660 822 0
659 -660 822 0
-659 -660 -822 0
661 662 -823 0
-661 662 823 0
661 -662 823 0
-661 -662 -823 0
663 664 -824 0
-663 664 824 0
663 -664 824 0
-663 -664 -824 0
665 666 -825 0
-665 666 825 0
665 -666 825 0
-665 -666 -825 0
667 668 -826 0
-667 668 826 0
667 -668 826 0
-667 -668 -826 0
669 670 -827 0
-669 670 827 0
669 -670 827 0
-669 -670 -827 0
671 672 -828 0
-671 672 828 0
671 -672 828 0
-671 -672 -828 0
673 674 -829 0
-673 674 829 0
673 -674 829 0
-673 -674 -829 0
675 676 -830 0
-675 676 830 0
675 -676 830 0
-675 -676 -830 0
677 678 -831 0
-677 678 831 0
677 -678 831 0
-677 -678 -831 0
679 680 -832 0
-679 680 832 0
679 -680 832 0
-679 -680 -832 0
681 682 -833 0
-681 682 833 0
681 -682 833 0
-681 -682 -833 0
683 684 -834 0
-683 684 834 0
683 -684 834 0
-683 -684 -834 0
685 686 -835 0
-685 686 835 0
685 -686 835 0
-685 -686 -835 0
687 688 -836 0
-687 688 836 0
687 -688 836 0
-687 -688 -836 0
689 690 -837 0
-689 690 837 0
689 -690 837 0
-689 -690 -837 0
691 692 -838 0
-691 692 838 0
691 -692 838 0
-691 -692 -838 0
693 694 -839 0
-693 694 839 0
693 -694 839 0
-693 -694 -839 0
695 696 -840 0
-695 696 840 0
695 -696 840 0
-695 -696 -840 0
697 698 -841 0
-697 698 841 0
697 -698 841 0
-697 -698 -841 0
699 700 -842 0
-699 700 842 0
699 -700 842 0
-699 -700 -842 0
701 702 -843 0
-701 702 843 0
701 -702 843 0
-701 -702 -843 0
703 704 -844 0
-703 704 844 0
703 -704 844 0
-703 -704 -844 0
705 706 -845 0
-705 706 845 0
705 -706 845 0
-705 -706 -845 0
707 708 -846 0
-707 708 846 0
707 -708 846 0
-707 -708 -846 0
709 710 -847 0
-709 710 847 0
709 -710 847 0
-709 -710 -847 0
711 712 -848 0
-711 712 848 0
711 -712 848 0
-711 -712 -848 0
713 714 -849 0
-713 714 849 0
713 -714 849 0
-713 -714 -849 0
715 716 -850 0
-715 716 850 0
715 -716 850 0
-715 -716 -850 0
717 718 -851 0
-717 718 851 0
717 -718 851 0
-717 -718 -851 0
719 720 -852 0
-719 720 852 0
719 -720 852 0
-719 -720 -852 0
721 722 -853 0
-721 722 853 0
721 -722 853 0
-721 -722 -853 0
723 724 -854 0
-723 724 854 0
723 -724 854 0
-723 -724 -854 0
725 726 -855 0
-725 726 855 0
725 -726 855 0
-725 -726 -855 0
727 728 -856 0
-727 728 856 0
727 -728 856 0
-727 -728 -856 0
729 730 -857 0
-729 730 857 0
729 -730 857 0
-729 -730 -857 0
731 732 -858 0
-731 732 858 0
731 -732 858 0
-731 -732 -858 0
733 734 -859 0
-733 734 859 0
733 -734 859 0
-733 -734 -859 0
735 736 -860 0
-735 736 860 0
735 -736 860 0
-735 -736 -860 0
737 738 -861 0
-737 738 861 0
737 -738 861 0
-737 -738 -861 0
739 491 -862 0
-739 491 862 0
739 -491 862 0
-739 -491 -862 0
740 741 -863 0
-740 741 863 0
740 -741 863 0
-740 -741 -863 0
742 743 -864 0
-742 743 864 0
742 -743 864 0
-742 -743 -864 0
744 745 -865 0
-744 745 865 0
744 -745 865 0
-744 -745 -865 0
746 747 -866 0
-746 747 866 0
746 -747 866 0
-746 -747 -866 0
748 749 -867 0
-748 749 867 0
748 -749 867 0
-748 -749 -867 0
750 751 -868 0
-750 751 868 0
750 -751 868 0
-750 -751 -868 0
752 753 -869 0
-752 753 869 0
752 -753 869 0
-752 -753 -869 0
754 755 -870 0
-754 755 870 0
754 -755 870 0
-754 -755 -870 0
756 757 -871 0
-756 757 871 0
756 -757 871 0
-756 -757 -871 0
758 759 -872 0
-758 759 872 0
758 -759 872 0
-758 -759 -872 0
760 761 -873 0
-760 761 873 0
760 -761 873 0
-760 -761 -873 0
762 763 -874 0
-762 763 874 0
762 -763 874 0
-762 -763 -874 0
764 765 -875 0
-764 765 875 0
764 -765 875 0
-764 -765 -875 0
766 767 -876 0
-766 767 876 0
766 -767 876 0
-766 -767 -876 0
768 769 -877 0
-768 769 877 0
768 -769 877 0
-768 -769 -877 0
770 771 -878 0
-770 771 878 0
770 -771 878 0
-770 -771 -878 0
772 773 -879 0
-772 773 879 0
772 -773 879 0
-772 -773 -879 0
774 775 -880 0
-774 775 880 0
774 -775 880 0
-774 -775 -880 0
776 777 -881 0
-776 777 881 0
776 -777 881 0
-776 -777 -881 0
778 779 -882 0
-778 779 882 0
778 -779 882 0
-778 -779 -882 0
780 781 -883 0
-780 781 883 0
780 -781 883 0
-780 -781 -883 0
782 783 -884 0
-782 783 884 0
782 -783 884 0
-782 -783 -884 0
784 785 -885 0
-784 785 885 0
784 -785 885 0
-784 -785 -885 0
786 787 -886 0
-786 787 886 0
786 -787 886 0
-786 -787 -886 0
788 789 -887 0
-788 789 887 0
788 -789 887 0
-788 -789 -887 0
790 791 -888 0
-790 791 888 0
790 -791 888 0
-790 -791 -888 0
792 793 -889 0
-792 793 889 0
792 -793 889 0
-792 -793 -889 0
794 795 -890 0
-794 795 890 0
794 -795 890 0
-794 -795 -890 0
796 797 -891 0
-796 797 891 0
796 -797 891 0
-796 -797 -891 0
798 799 -892 0
-798 799 892 0
798 -799 892 0
-798 -799 -892 0
800 801 -893 0
-800 801 893 0
800 -801 893 0
-800 -801 -893 0
802 803 -894 0
-802 803 894 0
802 -803 894 0
-802 -803 -894 0
804 805 -895 0
-804 805 895 0
804 -805 895 0
-804 -805 -895 0
806 807 -896 0
-806 807 896 0
806 -807 896 0
-806 -807 -896 0
808 809 -897 0
-808 809 897 0
808 -809 897 0
-808 -809 -897 0
810 811 -898 0
-810 811 898 0
810 -811 898 0
-810 -811 -898 0
812 813 -899 0
-812 813 899 0
812 -813 899 0
-812 -813 -899 0
814 815 -900 0
-814 815 900 0
814 -815 900 0
-814 -815 -900 0
816 817 -901 0
-816 817 901 0
816 -817 901 0
-816 -817 -901 0
818 819 -902 0
-818 819 902 0
818 -819 902 0
-818 -819 -902 0
820 821 -903 0
-820 821 903 0
820 -821 903 0
-820 -821 -903 0
822 823 -904 0
-822 823 904 0
822 -823 904 0
-822 -823 -904 0
824 825 -905 0
-824 825 905 0
824 -825 905 0
-824 -825 -905 0
826 827 -906 0
-826 827 906 0
826 -827 906 0
-826 -827 -906 0
828 829 -907 0
-828 829 907 0
828 -829 907 0
-828 -829 -907 0
830 831 -908 0
-830 831 908 0
830 -831 908 0
-830 -831 -908 0
832 833 -909 0
-832 833 909 0
832 -833 909 0
-832 -833 -909 0
834 835 -910 0
-834 835 910 0
834 -835 910 0
-834 -835 -910 0
836 837 -911 0
-836 837 911 0
836 -837 911 0
-836 -837 -911 0
838 839 -912 0
-838 839 912 0
838 -839 912 0
-838 -839 -912 0
840 841 -913 0
-840 841 913 0
840 -841 913 0
-840 -841 -913 0
842 843 -914 0
-842 843 914 0
842 -843 914 0
-842 -843 -914 0
844 845 -915 0
-844 845 915 0
844 -845 915 0
-844 -845 -915 0
846 847 -916 0
-846 847 916 0
846 -847 916 0
-846 -847 -916 0
848 849 -917 0
-848 849 917 0
848 -849 917 0
-848 -849 -917 0
850 851 -918 0
-850 851 918 0
850 -851 918 0
-850 -851 -918 0
852 853 -919 0
-852 853 919 0
852 -853 919 0
-852 -853 -919 0
854 855 -920 0
-854 855 920 0
854 -855 920 0
-854 -855 -920 0
856 857 -921 0
-856 857 921 0
856 -857 921 0
-856 -857 -921 0
858 859 -922 0
-858 859 922 0
858 -859 922 0
-858 -859 -922 0
860 861 -923 0
-860 861 923 0
860 -861 923 0
-860 -861 -923 0
863 864 -924 0
-863 864 924 0
863 -864 924 0
-863 -864 -924 0
865 866 -925 0
-865 866 925 0
865 -866 925 0
-865 -866 -925 0
867 868 -926 0
-867 868 926 0
867 -868 926 0
-867 -868 -926 0
869 870 -927 0
-869 870 927 0
869 -870 927 0
-869 -870 -927 0
871 872 -928 0
-871 872 928 0
871 -872 928 0
-871 -872 -928 0
873 874 -929 0
-873 874 929 0
873 -874 929 0
-873 -874 -929 0
875 876 -930 0
-875 876 930 0
875 -876 930 0
-875 -876 -930 0
877 878 -931 0
-877 878 931 0
877 -878 931 0
-877 -878 -931 0
879 880 -932 0
-879 880 932 0
879 -880 932 0
-879 -880 -932 0
881 882 -933 0
-881 882 933 0
881 -882 933 0
-881 -882 -933 0
883 884 -934 0
-883 884 934 0
883 -884 934 0
-883 -884 -934 0
885 886 -935 0
-885 886 935 0
885 -886 935 0
-885 -886 -935 0
887 888 -936 0
-887 888 936 0
887 -888 936 0
-887 -888 -936 0
889 890 -937 0
-889 890 937 0
889 -890 937 0
-889 -890 -937 0
891 892 -938 0
-891 892 938 0
891 -892 938 0
-891 -892 -938 0
893 894 -939 0
-893 894 939 0
893 -894 939 0
-893 -894 -939 0
895 896 -940 0
-895 896 940 0
895 -896 940 0
-895 -896 -940 0
897 898 -941 0
-897 898 941 0
897 -898 941 0
-897 -898 -941 0
899 900 -942 0
-899 900 942 0
899 -900 942 0
-899 -900 -942 0
901 902 -943 0
-901 902 943 0
901 -902 943 0
-901 -902 -943 0
903 904 -944 0
-903 904 944 0
903 -904 944 0
-903 -904 -944 0
905 906 -945 0
-905 906 945 0
905 -906 945 0
-905 -906 -945 0
907 908 -946 0
-907 908 946 0
907 -908 946 0
-907 -908 -946 0
909 910 -947 0
-909 910 947 0
909 -910 947 0
-909 -910 -947 0
911 912 -948 0
-911 912 948 0
911 -912 948 0
-911 -912 -948 0
913 914 -949 0
-913 914 949 0
913 -914 949 0
-913 -914 -949 0
915 916 -950 0
-915 916 950 0
915 -916 950 0
-915 -916 -950 0
917 918 -951 0
-917 918 951 0
917 -918 951 0
-917 -918 -951 0
919 920 -952 0
-919 920 952 0
919 -920 952 0
-919 -920 -952 0
921 922 -953 0
-921 922 953 0
921 -922 953 0
-921 -922 -953 0
923 862 -954 0
-923 862 954 0
923 -862 954 0
-923 -862 -954 0
924 925 -955 0
-924 925 955 0
924 -925 955 0
-924 -925 -955 0
926 927 -956 0
-926 927 956 0
926 -927 956 0
-926 -927 -956 0
928 929 -957 0
-928 929 957 0
928 -929 957 0
-928 -929 -957 0
930 931 -958 0
-930 931 958 0
930 -931 958 0
-930 -931 -958 0
932 933 -959 0
-932 933 959 0
932 -933 959 0
-932 -933 -959 0
934 935 -960 0
-934 935 960 0
934 -935 960 0
-934 -935 -960 0
936 937 -961 0
-936 937 961 0
936 -937 961 0
-936 -937 -961 0
938 939 -962 0
-938 939 962 0
938 -939 962 0
-938 -939 -962 0
940 941 -963 0
-940 941 963 0
940 -941 963 0
-940 -941 -963 0
942 943 -964 0
-942 943 964 0
942 -943 964 0
-942 -943 -964 0
944 945 -965 0
-944 945 965 0
944 -945 965 0
-944 -945 -965 0
946 947 -966 0
-946 947 966 0
946 -947 966 0
-946 -947 -966 0
948 949 -967 0
-948 949 967 0
948 -949 967 0
-948 -949 -967 0
950 951 -968 0
-950 951 968 0
950 -951 968 0
-950 -951 -968 0
952 953 -969 0
-952 953 969 0
952 -953 969 0
-952 -953 -969 0
955 956 -970 0
-955 956 970 0
955 -956 970 0
-955 -956 -970 0
957 958 -971 0
-957 958 971 0
957 -958 971 0
-957 -958 -971 0
959 960 -972 0
-959 960 972 0
959 -960 972 0
-959 -960 -972 0
961 962 -973 0
-961 962 973 0
961 -962 973 0
-961 -962 -973 0
963 964 -974 0
-963 964 974 0
963 -964 974 0
-963 -964 -974 0
965 966 -975 0
-965 966 975 0
965 -966 975 0
-965 -966 -975 0
967 968 -976 0
-967 968 976 0
967 -968 976 0
-967 -968 -976 0
969 954 -977 0
-969 954 977 0
969 -954 977 0
-969 -954 -977 0
970 971 -978 0
-970 971 978 0
970 -971 978 0
-970 -971 -978 0
972 973 -979 0
-972 973 979 0
972 -973 979 0
-972 -973 -979 0
974 975 -980 0
-974 975 980 0
974 -975 980 0
-974 -975 -980 0
976 977 -981 0
-976 977 981 0
976 -977 981 0
-976 -977 -981 0
978 979 -982 0
-978 979 982 0
978 -979 982 0
-978 -979 -982 0
980 981 -983 0
-980 981 983 0
980 -981 983 0
-980 -981 -983 0
982 983 -492 0
-982 983 492 0
982 -983 492 0
-982 -983 -492 0
